
Gurobi 6.5.2 (win64) logging started 07/23/16 02:37:23


Gurobi 6.5.2 (win64) logging started 07/23/16 02:37:23

Optimize a model with 8066 rows, 1003 columns and 18227 nonzeros
Coefficient statistics:
  Matrix range    [4e-06, 1e+03]
  Objective range [1e+00, 1e+00]
  Bounds range    [1e+00, 1e+00]
  RHS range       [1e+00, 1e+03]
Found heuristic solution: objective 2271.16
Presolve removed 8041 rows and 977 columns
Presolve time: 0.00s
Presolved: 25 rows, 26 columns, 76 nonzeros
Found heuristic solution: objective 201.8474385
Variable types: 26 continuous, 0 integer (0 binary)

Root relaxation: objective 1.651401e+02, 18 iterations, 0.00 seconds

    Nodes    |    Current Node    |     Objective Bounds      |     Work
 Expl Unexpl |  Obj  Depth IntInf | Incumbent    BestBd   Gap | It/Node Time

*    0     0               0     165.1401213  165.14012  0.00%     -    0s

Explored 0 nodes (18 simplex iterations) in 0.02 seconds
Thread count was 8 (of 8 available processors)

Optimal solution found (tolerance 1.00e-04)
Best objective 1.651401213127e+02, best bound 1.651401213127e+02, gap 0.0%

Wrote requested result file 'H2\instance8\\Results8EC_Sol4.lp'

